study/farce-uclibc/output/TypeErrors/DimacsConstraints/constraint_251.dimacs
c 2 __LINUXTHREADS_OLD__
c 4 __UCLIBC_HAS_CRYPT__
c 1 __UCLIBC_HAS_THREADS_NATIVE__
c 5 __UCLIBC_HAS_SHA512_CRYPT_IMPL__
c 6 __LINUXTHREADS_NEW__
c 3 __UCLIBC_HAS_THREADS__
p cnf 6 1
1 2 -3 -5 -4 6 1
